195997.88,44.5,55.19
194140.52,44.93,55.72
179832.4,48.5,60.15
197808.11,44.1,54.68
192519.06,45.31,56.19
176401.01,49.45,61.32
168078.58,51.9,64.36
192016.62,45.43,56.33
183639.83,47.5,58.9
185137.15,47.11,58.43
171608.63,50.83,63.03
194674.09,44.81,55.56
181535.73,48.05,59.59
194214.01,44.91,55.7
180524.28,48.32,59.92
197919.26,44.07,54.65
191490.67,45.55,56.49
180532.49,48.32,59.92
195614.11,44.59,55.3
184655.87,47.24,58.58
